\ Model LinearProblem
\ LP format - for model browsing. Use MPS format to capture full model detail.
Maximize
  1.5 C0 + 1.5 C1 + 1.5 C2 + C3 + C4 + C5 + 2 C6 + 1.75 C7 + 1.75 C8
   + 2.5 C9 + 3 C10 + 3 C11 + 2.25 C12 + 2 C13 + 2.2 C14
Subject To
 R0: 0.00439453125 C0 + 0.00439453125 C1 + 0.00439453125 C2 >= 1e-10
 R1: 0.017578125 C3 + 0.017578125 C4 + 0.017578125 C5 >= 1e-10
 R2: 0.00507436760029945 C6 + 0.0010986328125 C7 + 0.0010986328125 C8
   >= 1e-10
 R3: 3.86238e-05 C9 + 1.81049e-06 C10 + 1.81049e-06 C11 >= 1e-10
 R4: 2.74658203125e-04 C12 + 0.0010986328125 C13 + 1.48663e-05 C14
   >= 1e-10
 R5: 18 C0 + 15 C1 + 21 C2 <= 50
 R6: 17 C3 + 10 C4 + 15 C5 <= 50
 R7: 9 C6 + 12 C7 + 14 C8 <= 50
 R8: 16 C9 + 15 C10 + 12 C11 <= 50
 R9: 19 C12 + 14 C13 + 26 C14 <= 50
 R10: 2 C0 + 2 C1 + 2 C2 + C9 <= -25
 R11: C0 + C3 + C4 + C5 + 3 C9 + 3 C10 + 3 C11 <= -55
 R12: C1 + 2 C6 + 2 C7 + 2 C8 <= -25
 R13: C2 + 3 C9 + 3 C10 + 2 C14 <= -25
 R14: C0 + C1 + C2 + C3 + 2 C7 + 3 C10 + 3 C11 + 2 C12 + 2 C14 <= -85
 R15: C4 + 2 C6 + 2 C8 <= -24
 R16: C7 + C8 + 3 C12 + 3 C13 + 3 C14 <= -54
 R17: 3 C11 + 2 C12 + 2 C14 <= -114
 R18: 3 C9 + 3 C10 + 3 C11 <= -24
 R19: <= 6
 R20: 2 C0 + 2 C1 + 2 C2 + C3 + C13 <= -53
 R21: 2 C13 <= -23
 R22: C3 + C4 + C5 <= -23
 R23: C4 + C5 + 2 C6 + 2 C7 + 2 C8 <= -53
 R24: C5 <= -23
 R25: <= 8
 R26: <= 8
 R27: 2 C12 + 2 C13 + 2 C14 <= -22
 R28: C0 + C1 + C2 >= 1
 R29: C3 + C4 + C5 >= 1
 R30: C6 + C7 + C8 >= 1
 R31: C9 + C10 + C11 >= 1
 R32: C12 + C13 + C14 >= 1
 R33: C0 + C1 + C2 <= 1
 R34: C3 + C4 + C5 <= 1
 R35: C6 + C7 + C8 <= 1
 R36: C9 + C10 + C11 <= 1
 R37: C12 + C13 + C14 <= 1
Bounds
End
